(set-info :source |printed by MathSAT|)
(declare-fun |.x{1}| () Int)
(declare-fun |.x{337}| () Int)
(declare-fun |.x{23}| () (Array Int Int))
(declare-fun |.x{338}| () (Array Int Int))
(declare-fun |.x{3}| () (Array Int Int))
(declare-fun |.x{339}| () (Array Int Int))
(declare-fun |.x{4}| () (Array Int (Array Int Int)))
(declare-fun |.x{340}| () (Array Int (Array Int Int)))
(declare-fun |.x{5}| () (Array Int (Array Int Int)))
(declare-fun |.x{341}| () (Array Int (Array Int Int)))
(declare-fun |.x{27}| () Int)
(declare-fun |.x{342}| () Int)
(declare-fun |.x{7}| () Int)
(declare-fun |.x{343}| () Int)
(declare-fun |.x{8}| () (Array Int Int))
(declare-fun |.x{344}| () (Array Int Int))
(declare-fun |.x{9}| () (Array Int Int))
(declare-fun |.x{345}| () (Array Int Int))
(declare-fun |.x{31}| () Int)
(declare-fun |.x{346}| () Int)
(declare-fun |.x{11}| () Int)
(declare-fun |.x{347}| () Int)
(declare-fun |.x{12}| () Int)
(declare-fun |.x{348}| () Int)
(declare-fun |.x{13}| () Int)
(declare-fun |.x{349}| () Int)
(declare-fun |.x{14}| () Int)
(declare-fun |.x{350}| () Int)
(declare-fun |.x{15}| () Int)
(declare-fun |.x{351}| () Int)
(declare-fun |.x{16}| () Int)
(declare-fun |.x{352}| () Int)
(declare-fun |.x{17}| () Int)
(declare-fun |.x{353}| () Int)
(declare-fun |.x{18}| () Int)
(declare-fun |.x{354}| () Int)
(declare-fun |.x{19}| () Int)
(declare-fun |.x{355}| () Int)
(declare-fun |.x{20}| () Int)
(declare-fun |.x{356}| () Int)
(declare-fun |.x{21}| () Bool)
(declare-fun |.x{315}| () Bool)
(declare-fun |.loc{3}| () Bool)
(declare-fun |.loc{5}| () Bool)
(declare-fun |.loc{4}| () Bool)
(declare-fun |.loc{6}| () Bool)
(declare-fun |.x{83}| () (Array Int Int))
(define-fun .def_52 () Bool (! |.loc{4}| :next |.loc{6}|))
(define-fun .def_182 () Bool (not .def_52))
(define-fun .def_50 () Bool (! |.loc{3}| :next |.loc{5}|))
(define-fun .def_69 () Bool (not .def_50))
(define-fun .def_196 () Bool (and .def_69 .def_182))
(define-fun .def_28 () Int (! |.x{11}| :next |.x{347}|))
(define-fun .def_26 () Int (! |.x{31}| :next |.x{346}|))
(define-fun .def_190 () Bool (= .def_26 .def_28))
(define-fun .def_16 () (Array Int (Array Int Int)) (! |.x{5}| :next |.x{341}|))
(define-fun .def_14 () (Array Int (Array Int Int)) (! |.x{4}| :next |.x{340}|))
(define-fun .def_189 () Bool (= .def_14 .def_16))
(define-fun .def_191 () Bool (and .def_189 .def_190))
(define-fun .def_20 () Int (! |.x{7}| :next |.x{343}|))
(define-fun .def_18 () Int (! |.x{27}| :next |.x{342}|))
(define-fun .def_188 () Bool (= .def_18 .def_20))
(define-fun .def_192 () Bool (and .def_188 .def_191))
(define-fun .def_24 () (Array Int Int) (! |.x{9}| :next |.x{345}|))
(define-fun .def_22 () (Array Int Int) (! |.x{8}| :next |.x{344}|))
(define-fun .def_187 () Bool (= .def_22 .def_24))
(define-fun .def_193 () Bool (and .def_187 .def_192))
(define-fun .def_48 () Bool (! |.x{21}| :next |.x{315}|))
(define-fun .def_186 () Bool (not .def_48))
(define-fun .def_194 () Bool (and .def_186 .def_193))
(define-fun .def_12 () (Array Int Int) (! |.x{3}| :next |.x{339}|))
(define-fun .def_10 () (Array Int Int) (! |.x{23}| :next |.x{338}|))
(define-fun .def_185 () Bool (= .def_10 .def_12))
(define-fun .def_195 () Bool (and .def_185 .def_194))
(define-fun .def_197 () Bool (! (and .def_195 .def_196) :init true))
(define-fun .def_180 () Bool (= .def_28 |.x{347}|))
(define-fun .def_178 () Bool (= .def_24 |.x{345}|))
(define-fun .def_176 () Bool (= .def_20 |.x{343}|))
(define-fun .def_174 () Bool (= .def_16 |.x{341}|))
(define-fun .def_8 () Int (! |.x{1}| :next |.x{337}|))
(define-fun .def_172 () Bool (= .def_8 |.x{337}|))
(define-fun .def_171 () Bool (= .def_12 |.x{339}|))
(define-fun .def_173 () Bool (and .def_171 .def_172))
(define-fun .def_175 () Bool (and .def_173 .def_174))
(define-fun .def_177 () Bool (and .def_175 .def_176))
(define-fun .def_179 () Bool (and .def_177 .def_178))
(define-fun .def_181 () Bool (and .def_179 .def_180))
(define-fun .def_183 () Bool (and .def_181 .def_182))
(define-fun .def_167 () Bool (not |.loc{5}|))
(define-fun .def_72 () Bool (= |.x{351}| 2))
(define-fun .def_159 () Bool (not .def_72))
(define-fun .def_160 () Bool (or .def_48 .def_159))
(define-fun .def_99 () (Array Int Int) (store |.x{83}| |.x{354}| 1))
(define-fun .def_124 () Int (select .def_99 |.x{356}|))
(define-fun .def_125 () Bool (= .def_124 0))
(define-fun .def_121 () Bool (= |.x{356}| 0))
(define-fun .def_122 () Bool (not .def_121))
(define-fun .def_119 () Bool (= |.x{350}| 0))
(define-fun .def_116 () Bool (= |.x{354}| 0))
(define-fun .def_117 () Bool (not .def_116))
(define-fun .def_112 () Bool (= |.x{355}| 0))
(define-fun .def_108 () Int (select |.x{83}| |.x{354}|))
(define-fun .def_109 () Bool (= .def_108 0))
(define-fun .def_85 () Int (+ |.x{355}| 4))
(define-fun .def_104 () (Array Int Int) (select |.x{340}| |.x{356}|))
(define-fun .def_105 () Int (select .def_104 .def_85))
(define-fun .def_106 () Bool (= |.x{351}| .def_105))
(define-fun .def_100 () (Array Int Int) (store .def_99 |.x{356}| 1))
(define-fun .def_101 () Bool (= |.x{338}| .def_100))
(define-fun .def_96 () Bool (<= |.x{337}| |.x{356}|))
(define-fun .def_97 () Bool (not .def_96))
(define-fun .def_94 () Bool (<= |.x{337}| |.x{354}|))
(define-fun .def_95 () Bool (not .def_94))
(define-fun .def_98 () Bool (and .def_95 .def_97))
(define-fun .def_102 () Bool (and .def_98 .def_101))
(define-fun .def_82 () (Array Int Int) (select .def_14 |.x{354}|))
(define-fun .def_86 () Int (select .def_82 |.x{350}|))
(define-fun .def_93 () Bool (= .def_86 1))
(define-fun .def_103 () Bool (and .def_93 .def_102))
(define-fun .def_107 () Bool (and .def_103 .def_106))
(define-fun .def_110 () Bool (and .def_107 .def_109))
(define-fun .def_81 () Int (+ |.x{350}| 4))
(define-fun .def_83 () Int (select .def_82 .def_81))
(define-fun .def_87 () (Array Int Int) (select .def_14 |.x{356}|))
(define-fun .def_88 () (Array Int Int) (store .def_87 |.x{355}| .def_86))
(define-fun .def_89 () (Array Int Int) (store .def_88 .def_85 .def_83))
(define-fun .def_90 () (Array Int (Array Int Int)) (store .def_14 |.x{356}| .def_89))
(define-fun .def_91 () Bool (= |.x{340}| .def_90))
(define-fun .def_111 () Bool (and .def_91 .def_110))
(define-fun .def_113 () Bool (and .def_111 .def_112))
(define-fun .def_84 () Bool (= .def_83 2))
(define-fun .def_114 () Bool (and .def_84 .def_113))
(define-fun .def_77 () (Array Int Int) (store .def_22 |.x{354}| 8))
(define-fun .def_78 () (Array Int Int) (store .def_77 |.x{356}| 8))
(define-fun .def_79 () Bool (= |.x{344}| .def_78))
(define-fun .def_115 () Bool (and .def_79 .def_114))
(define-fun .def_118 () Bool (and .def_115 .def_117))
(define-fun .def_120 () Bool (and .def_118 .def_119))
(define-fun .def_123 () Bool (and .def_120 .def_122))
(define-fun .def_126 () Bool (and .def_123 .def_125))
(define-fun .def_157 () Bool (or .def_48 .def_126))
(define-fun .def_60 () (Array Int Int) (store .def_10 0 0))
(define-fun .def_61 () Bool (= |.x{83}| .def_60))
(define-fun .def_57 () Bool (= |.x{342}| 0))
(define-fun .def_56 () Bool (= |.x{346}| 0))
(define-fun .def_58 () Bool (and .def_56 .def_57))
(define-fun .def_62 () Bool (and .def_58 .def_61))
(define-fun .def_63 () Bool (or .def_48 .def_62))
(define-fun .def_158 () Bool (and .def_63 .def_157))
(define-fun .def_161 () Bool (and .def_158 .def_160))
(define-fun .def_30 () Int (! |.x{12}| :next |.x{348}|))
(define-fun .def_67 () Bool (= .def_30 |.x{348}|))
(define-fun .def_162 () Bool (and .def_67 .def_161))
(define-fun .def_163 () Bool (and .def_69 .def_162))
(define-fun .def_164 () Bool (and |.x{315}| .def_163))
(define-fun .def_153 () Bool (= |.x{349}| 0))
(define-fun .def_46 () Int (! |.x{20}| :next |.x{356}|))
(define-fun .def_42 () Int (! |.x{18}| :next |.x{354}|))
(define-fun .def_150 () (Array Int Int) (store .def_10 .def_42 0))
(define-fun .def_151 () (Array Int Int) (store .def_150 .def_46 0))
(define-fun .def_152 () Bool (= |.x{338}| .def_151))
(define-fun .def_154 () Bool (and .def_152 .def_153))
(define-fun .def_155 () Bool (or .def_48 .def_154))
(define-fun .def_148 () Bool (= .def_14 |.x{340}|))
(define-fun .def_146 () Bool (= .def_18 |.x{342}|))
(define-fun .def_144 () Bool (= .def_22 |.x{344}|))
(define-fun .def_142 () Bool (= .def_26 |.x{346}|))
(define-fun .def_38 () Int (! |.x{16}| :next |.x{352}|))
(define-fun .def_140 () Bool (= .def_38 |.x{352}|))
(define-fun .def_40 () Int (! |.x{17}| :next |.x{353}|))
(define-fun .def_138 () Bool (= .def_40 |.x{353}|))
(define-fun .def_134 () Bool (= |.x{348}| |.x{349}|))
(define-fun .def_135 () Bool (or |.x{315}| .def_134))
(define-fun .def_65 () Bool (= .def_48 |.x{315}|))
(define-fun .def_136 () Bool (and .def_65 .def_135))
(define-fun .def_137 () Bool (and .def_50 .def_136))
(define-fun .def_139 () Bool (and .def_137 .def_138))
(define-fun .def_141 () Bool (and .def_139 .def_140))
(define-fun .def_143 () Bool (and .def_141 .def_142))
(define-fun .def_145 () Bool (and .def_143 .def_144))
(define-fun .def_147 () Bool (and .def_145 .def_146))
(define-fun .def_149 () Bool (and .def_147 .def_148))
(define-fun .def_156 () Bool (and .def_149 .def_155))
(define-fun .def_165 () Bool (or .def_156 .def_164))
(define-fun .def_166 () Bool (and |.loc{6}| .def_165))
(define-fun .def_168 () Bool (and .def_166 .def_167))
(define-fun .def_54 () Bool (not |.loc{6}|))
(define-fun .def_64 () Bool (and .def_54 .def_63))
(define-fun .def_129 () Bool (and .def_64 .def_67))
(define-fun .def_130 () Bool (and .def_69 .def_129))
(define-fun .def_131 () Bool (and .def_48 .def_130))
(define-fun .def_132 () Bool (and |.loc{5}| .def_131))
(define-fun .def_133 () Bool (and |.x{315}| .def_132))
(define-fun .def_169 () Bool (or .def_133 .def_168))
(define-fun .def_127 () Bool (or |.x{315}| .def_126))
(define-fun .def_73 () Bool (or |.x{315}| .def_72))
(define-fun .def_66 () Bool (and .def_64 .def_65))
(define-fun .def_68 () Bool (and .def_66 .def_67))
(define-fun .def_70 () Bool (and .def_68 .def_69))
(define-fun .def_74 () Bool (and .def_70 .def_73))
(define-fun .def_75 () Bool (and |.loc{5}| .def_74))
(define-fun .def_128 () Bool (and .def_75 .def_127))
(define-fun .def_170 () Bool (or .def_128 .def_169))
(define-fun .def_184 () Bool (! (and .def_170 .def_183) :trans true))
(define-fun .def_32 () Int (! |.x{13}| :next |.x{349}|))
(define-fun .def_34 () Int (! |.x{14}| :next |.x{350}|))
(define-fun .def_36 () Int (! |.x{15}| :next |.x{351}|))
(define-fun .def_44 () Int (! |.x{19}| :next |.x{355}|))
(define-fun .def_198 () Bool (and .def_52 .def_69))
(define-fun .def_199 () Bool (and .def_48 .def_198))
(define-fun .def_200 () Bool (! (not .def_199) :invar-property 0))
(assert true)
